
Gurobi 12.0.2 (win64) logging started Fri Jun  6 10:10:17 2025

Set parameter LogFile to value "C:\Ioana\_uni\honours\slp\algorithm\Main_files\results\others\prox_tubules_new\Task_014_Sample001_irr_gurobi.log"
Gurobi Optimizer version 12.0.2 build v12.0.2rc0 (win64 - Windows 11.0 (26100.2))

CPU model: Intel(R) Core(TM) Ultra 5 125H, instruction set [SSE2|AVX|AVX2]
Thread count: 14 physical cores, 18 logical processors, using up to 18 threads

Non-default parameters:
TimeLimit  2200

Optimize a model with 47658 rows, 34794 columns and 147841 nonzeros
Model fingerprint: 0x11a38484
Variable types: 17400 continuous, 17394 integer (17394 binary)
Coefficient statistics:
  Matrix range     [1e-04, 8e+04]
  Objective range  [1e-04, 1e+01]
  Bounds range     [1e+00, 1e+03]
  RHS range        [1e+00, 1e+00]
Presolve removed 31250 rows and 21835 columns
Presolve time: 0.30s
Presolved: 16408 rows, 12959 columns, 54594 nonzeros
Variable types: 6413 continuous, 6546 integer (6546 binary)

Root relaxation: objective 1.026716e-04, 512 iterations, 0.02 seconds (0.04 work units)

    Nodes    |    Current Node    |     Objective Bounds      |     Work
 Expl Unexpl |  Obj  Depth IntInf | Incumbent    BestBd   Gap | It/Node Time

     0     0    0.00010    0   12          -    0.00010      -     -    0s
H    0     0                       0.0749784    0.00010   100%     -    0s
H    0     0                       0.0716227    0.00010   100%     -    0s
     0     0    0.02577    0   14    0.07162    0.02577  64.0%     -    0s

Explored 1 nodes (1053 simplex iterations) in 0.65 seconds (0.66 work units)
Thread count was 18 (of 18 available processors)

Solution count 2: 0.0716227 0.0749784 

Optimal solution found (tolerance 1.00e-04)
Best objective 7.162270767124e-02, best bound 7.162270767124e-02, gap 0.0000%
